c preprocessed version of 1a8o, 64 vertices, 536 edges
p td 64 536
62 63
61 62
60 62
60 61
59 61
59 60
58 62
58 61
58 60
58 59
57 62
57 60
57 59
57 58
56 61
56 60
56 59
56 58
56 57
55 61
55 60
55 59
55 58
55 57
55 56
54 59
54 56
54 55
53 55
53 54
52 61
52 59
52 55
52 54
52 53
51 61
51 60
51 59
51 58
51 57
51 56
51 55
51 54
51 53
51 52
50 61
50 55
50 52
50 51
49 61
49 55
49 53
49 52
49 51
49 50
48 61
48 60
48 59
48 57
48 56
48 55
48 53
48 52
48 51
48 50
48 49
47 63
47 62
47 61
47 60
47 59
47 55
47 51
47 50
47 49
47 48
46 61
46 50
46 49
46 48
46 47
45 49
45 48
45 47
45 46
44 63
44 62
44 61
44 50
44 47
44 46
44 45
43 49
43 47
43 46
43 45
43 44
42 63
42 48
42 47
42 46
42 45
42 44
42 43
41 57
41 55
41 51
41 49
41 48
41 45
41 43
41 42
40 48
40 45
40 42
40 41
39 49
39 48
39 45
39 41
39 40
38 61
38 59
38 57
38 55
38 53
38 52
38 51
38 49
38 48
38 47
38 46
38 45
38 41
38 40
38 39
37 61
37 57
37 56
37 55
37 51
37 48
37 41
37 40
37 39
37 38
36 57
36 48
36 41
36 40
36 39
36 38
36 37
35 53
35 49
35 48
35 40
35 39
35 38
35 37
35 36
34 57
34 56
34 55
34 54
34 53
34 52
34 51
34 49
34 48
34 39
34 38
34 37
34 36
34 35
33 59
33 58
33 57
33 56
33 55
33 51
33 48
33 41
33 38
33 37
33 36
33 35
33 34
32 53
32 39
32 37
32 36
32 35
32 34
32 33
31 57
31 56
31 55
31 54
31 53
31 35
31 34
31 33
31 32
30 57
30 56
30 37
30 36
30 34
30 33
30 32
30 31
29 37
29 36
29 35
29 33
29 32
29 31
29 30
28 54
28 35
28 34
28 32
28 31
28 30
28 29
27 57
27 56
27 33
27 31
27 30
27 29
27 28
26 32
26 31
26 30
26 29
26 28
26 27
25 57
25 37
25 36
25 33
25 32
25 30
25 29
25 28
25 27
25 26
24 30
24 29
24 26
24 25
23 36
23 32
23 30
23 29
23 26
23 25
23 24
22 25
22 24
22 23
21 57
21 33
21 30
21 25
21 24
21 23
21 22
20 57
20 40
20 37
20 36
20 33
20 32
20 31
20 30
20 29
20 27
20 26
20 25
20 24
20 23
20 22
20 21
19 40
19 37
19 36
19 29
19 25
19 23
19 22
19 21
19 20
18 22
18 21
18 20
18 19
17 57
17 37
17 36
17 33
17 30
17 29
17 27
17 25
17 21
17 20
17 19
17 18
16 57
16 48
16 42
16 41
16 40
16 39
16 38
16 37
16 36
16 33
16 30
16 29
16 25
16 23
16 21
16 20
16 19
16 18
16 17
15 41
15 37
15 36
15 22
15 19
15 18
15 17
15 16
14 57
14 21
14 19
14 18
14 17
14 16
14 15
13 62
13 61
13 60
13 58
13 57
13 56
13 55
13 51
13 48
13 41
13 38
13 37
13 36
13 33
13 30
13 25
13 21
13 20
13 18
13 17
13 16
13 15
13 14
12 57
12 48
12 42
12 41
12 40
12 39
12 38
12 37
12 36
12 33
12 20
12 17
12 16
12 15
12 14
12 13
11 18
11 16
11 15
11 14
11 13
11 12
10 63
10 62
10 60
10 58
10 57
10 37
10 17
10 14
10 13
10 12
10 11
9 63
9 62
9 61
9 60
9 59
9 58
9 57
9 55
9 51
9 48
9 45
9 44
9 42
9 41
9 40
9 38
9 37
9 33
9 17
9 16
9 14
9 13
9 12
9 11
9 10
8 63
8 62
8 42
8 15
8 14
8 13
8 12
8 11
8 10
8 9
7 42
7 41
7 16
7 15
7 14
7 12
7 11
7 10
7 9
7 8
6 63
6 44
6 42
6 11
6 8
6 7
5 46
5 44
5 43
5 42
5 7
5 6
4 42
4 15
4 12
4 11
4 8
4 7
4 6
4 5
3 63
3 57
3 48
3 44
3 42
3 41
3 40
3 38
3 37
3 36
3 33
3 20
3 17
3 16
3 15
3 13
3 12
3 11
3 10
3 9
3 8
3 7
3 6
3 5
3 4
2 45
2 43
2 42
2 41
2 40
2 39
2 36
2 19
2 16
2 15
2 12
2 7
2 5
2 4
2 3
1 41
1 40
1 37
1 36
1 22
1 20
1 19
1 18
1 17
1 16
1 15
1 14
1 13
1 12
1 11
1 7
1 4
1 3
1 2
0 40
0 36
0 23
0 22
0 19
0 18
0 16
0 15
0 4
0 2
0 1
